w = 19;
n = 14;
measures = [|3, 3,
|3, 4,
|3, 5,
|3, 6,
|3, 7,
|3, 8,
|3, 9,
|3, 10,
|3, 11,
|3, 13,
|3, 19,
|4, 5,
|4, 6,
|4, 8,
|];
initial_x = [0, 3, 6, 9, 12, 15, 0, 3, 6, 9, 12, 15, 0, 4];
initial_y = [0, 0, 0, 0, 0, 0, 8, 8, 8, 8, 8, 8, 27, 27];